\ENCODING=ISO-8859-1
\Problem name: Configuration2

Minimize
 obj: MWFT
Subject To
 MWFT_Definition:         MWFT - 0.4 c(1) - 0.8 c(2) - 2 c(3) - 1.2 c(4)
                          - 2 c(5)  = -556.4
 Cmax_epsilon_constraint: Cmax <= 251.9
 c3:                      - c(1) + Cmax >= 0
 c4:                      - c(2) + Cmax >= 0
 c5:                      - c(3) + Cmax >= 0
 c6:                      - c(4) + Cmax >= 0
 c7:                      - c(5) + Cmax >= 0
 c8:                      c(1) - s(1) - 57 y({1,4}) - 60 y({1,5}) >= 0
 c9:                      c(1) - s(2) - 68 y({2,7}) >= 0
 c10:                     c(2) - s(3) - 84 y({3,2}) - 79 y({3,3}) >= 0
 c11:                     c(3) - s(4) - 33 y({4,1}) >= 0
 c12:                     c(3) - s(5) - 73 y({5,4}) - 79 y({5,5}) >= 0
 c13:                     c(4) - s(6) - 82 y({6,2}) - 76 y({6,3}) >= 0
 c14:                     c(4) - s(7) - 31 y({7,6}) >= 0
 c15:                     c(5) - s(8) - 38 y({8,1}) >= 0
 c16:                     c(5) - s(9) - 61 y({9,4}) - 67 y({9,5}) >= 0
 c17:                     c(5) - s(10) - 63 y({10,7}) >= 0
 c18:                     y({1,4}) + y({1,5})  = 1
 c19:                     y({2,7})  = 1
 c20:                     y({3,2}) + y({3,3})  = 1
 c21:                     y({4,1})  = 1
 c22:                     y({5,4}) + y({5,5})  = 1
 c23:                     y({6,2}) + y({6,3})  = 1
 c24:                     y({7,6})  = 1
 c25:                     y({8,1})  = 1
 c26:                     y({9,4}) + y({9,5})  = 1
 c27:                     y({10,7})  = 1
 c28:                     s(1) >= 96
 c29:                     s(2) >= 96
 c30:                     s(3) >= 85
 c31:                     s(4) >= 85
 c32:                     s(5) >= 85
 c33:                     s(6) >= 100
 c34:                     s(7) >= 100
 c35:                     s(8) >= 80
 c36:                     s(9) >= 80
 c37:                     s(10) >= 80
 c38:                     s(1) - 80 y({1,4}) - 80 y({1,5}) >= 0
 c39:                     s(2) - 85 y({2,7}) >= 0
 c40:                     s(3) - 96 y({3,2}) - 85 y({3,3}) >= 0
 c41:                     s(4) - 100 y({4,1}) >= 0
 c42:                     s(5) - 80 y({5,4}) - 80 y({5,5}) >= 0
 c43:                     s(6) - 96 y({6,2}) - 85 y({6,3}) >= 0
 c44:                     s(7) - 80 y({7,6}) >= 0
 c45:                     s(8) - 100 y({8,1}) >= 0
 c46:                     s(9) - 80 y({9,4}) - 80 y({9,5}) >= 0
 c47:                     s(10) - 85 y({10,7}) >= 0
 c48:                     - s(1) - 57 y({1,4}) - 60 y({1,5}) + s(2)
                          - 1000 x({1,2}) >= -1000
 c49:                     - s(4) - 33 y({4,1}) + s(5) - 1000 x({4,5}) >= -1000
 c50:                     - s(6) - 82 y({6,2}) - 76 y({6,3}) + s(7)
                          - 1000 x({6,7}) >= -1000
 c51:                     - s(8) - 38 y({8,1}) + s(9) - 1000 x({8,9}) >= -1000
 c52:                     - s(8) - 38 y({8,1}) + s(10) - 1000 x({8,10})
                          >= -1000
 c53:                     - s(9) - 61 y({9,4}) - 67 y({9,5}) + s(10)
                          - 1000 x({9,10}) >= -1000
 c54:                     s(1) - s(2) - 68 y({2,7}) + 1000 x({1,2}) >= 0
 c55:                     s(4) - s(5) - 73 y({5,4}) - 79 y({5,5})
                          + 1000 x({4,5}) >= 0
 c56:                     s(6) - s(7) - 31 y({7,6}) + 1000 x({6,7}) >= 0
 c57:                     s(8) - s(9) - 61 y({9,4}) - 67 y({9,5})
                          + 1000 x({8,9}) >= 0
 c58:                     s(8) - s(10) - 63 y({10,7}) + 1000 x({8,10}) >= 0
 c59:                     s(9) - s(10) - 63 y({10,7}) + 1000 x({9,10}) >= 0
 c60:                     - 0.5 y({1,4}) - 0.5 y({5,4}) + z({1,5,4})
                          + z({5,1,4}) <= 0
 c61:                     - 0.5 y({1,5}) - 0.5 y({5,5}) + z({1,5,5})
                          + z({5,1,5}) <= 0
 c62:                     - 0.5 y({1,4}) - 0.5 y({9,4}) + z({1,9,4})
                          + z({9,1,4}) <= 0
 c63:                     - 0.5 y({1,5}) - 0.5 y({9,5}) + z({1,9,5})
                          + z({9,1,5}) <= 0
 c64:                     - 0.5 y({2,7}) - 0.5 y({10,7}) + z({2,10,7})
                          + z({10,2,7}) <= 0
 c65:                     - 0.5 y({3,2}) - 0.5 y({6,2}) + z({3,6,2})
                          + z({6,3,2}) <= 0
 c66:                     - 0.5 y({3,3}) - 0.5 y({6,3}) + z({3,6,3})
                          + z({6,3,3}) <= 0
 c67:                     - 0.5 y({4,1}) - 0.5 y({8,1}) + z({4,8,1})
                          + z({8,4,1}) <= 0
 c68:                     - 0.5 y({5,4}) - 0.5 y({9,4}) + z({5,9,4})
                          + z({9,5,4}) <= 0
 c69:                     - 0.5 y({5,5}) - 0.5 y({9,5}) + z({5,9,5})
                          + z({9,5,5}) <= 0
 c70:                     - y({1,4}) - y({5,4}) + z({1,5,4}) + z({5,1,4}) >= -1
 c71:                     - y({1,5}) - y({5,5}) + z({1,5,5}) + z({5,1,5}) >= -1
 c72:                     - y({1,4}) - y({9,4}) + z({1,9,4}) + z({9,1,4}) >= -1
 c73:                     - y({1,5}) - y({9,5}) + z({1,9,5}) + z({9,1,5}) >= -1
 c74:                     - y({2,7}) - y({10,7}) + z({2,10,7}) + z({10,2,7})
                          >= -1
 c75:                     - y({3,2}) - y({6,2}) + z({3,6,2}) + z({6,3,2}) >= -1
 c76:                     - y({3,3}) - y({6,3}) + z({3,6,3}) + z({6,3,3}) >= -1
 c77:                     - y({4,1}) - y({8,1}) + z({4,8,1}) + z({8,4,1}) >= -1
 c78:                     - y({5,4}) - y({9,4}) + z({5,9,4}) + z({9,5,4}) >= -1
 c79:                     - y({5,5}) - y({9,5}) + z({5,9,5}) + z({9,5,5}) >= -1
 c80:                     - s(1) - 57 y({1,4}) - 60 y({1,5}) + s(5)
                          - 1000 z({1,5,4}) - 1000 z({1,5,5}) >= -1000
 c81:                     - s(1) - 57 y({1,4}) - 60 y({1,5}) + s(9)
                          - 1000 z({1,9,4}) - 1000 z({1,9,5}) >= -1000
 c82:                     - s(2) - 68 y({2,7}) + s(10) - 1000 z({2,10,7})
                          >= -1000
 c83:                     - s(3) - 84 y({3,2}) - 79 y({3,3}) + s(6)
                          - 1000 z({3,6,2}) - 1000 z({3,6,3}) >= -1000
 c84:                     - s(4) - 33 y({4,1}) + s(8) - 1000 z({4,8,1})
                          >= -1000
 c85:                     s(1) - s(5) - 73 y({5,4}) - 79 y({5,5})
                          - 1000 z({5,1,4}) - 1000 z({5,1,5}) >= -1000
 c86:                     - s(5) - 73 y({5,4}) - 79 y({5,5}) + s(9)
                          - 1000 z({5,9,4}) - 1000 z({5,9,5}) >= -1000
 c87:                     s(3) - s(6) - 82 y({6,2}) - 76 y({6,3})
                          - 1000 z({6,3,2}) - 1000 z({6,3,3}) >= -1000
 c88:                     s(4) - s(8) - 38 y({8,1}) - 1000 z({8,4,1}) >= -1000
 c89:                     s(1) - s(9) - 61 y({9,4}) - 67 y({9,5})
                          - 1000 z({9,1,4}) - 1000 z({9,1,5}) >= -1000
 c90:                     s(5) - s(9) - 61 y({9,4}) - 67 y({9,5})
                          - 1000 z({9,5,4}) - 1000 z({9,5,5}) >= -1000
 c91:                     s(2) - s(10) - 63 y({10,7}) - 1000 z({10,2,7})
                          >= -1000
Bounds
      MWFT Free
      Cmax Free
 0 <= y({1,4}) <= 1
 0 <= y({1,5}) <= 1
 0 <= y({2,7}) <= 1
 0 <= y({3,2}) <= 1
 0 <= y({3,3}) <= 1
 0 <= y({4,1}) <= 1
 0 <= y({5,4}) <= 1
 0 <= y({5,5}) <= 1
 0 <= y({6,2}) <= 1
 0 <= y({6,3}) <= 1
 0 <= y({7,6}) <= 1
 0 <= y({8,1}) <= 1
 0 <= y({9,4}) <= 1
 0 <= y({9,5}) <= 1
 0 <= y({10,7}) <= 1
 0 <= x({1,2}) <= 1
 0 <= x({4,5}) <= 1
 0 <= x({6,7}) <= 1
 0 <= x({8,9}) <= 1
 0 <= x({8,10}) <= 1
 0 <= x({9,10}) <= 1
 0 <= z({1,5,4}) <= 1
 0 <= z({5,1,4}) <= 1
 0 <= z({1,5,5}) <= 1
 0 <= z({5,1,5}) <= 1
 0 <= z({1,9,4}) <= 1
 0 <= z({9,1,4}) <= 1
 0 <= z({1,9,5}) <= 1
 0 <= z({9,1,5}) <= 1
 0 <= z({2,10,7}) <= 1
 0 <= z({10,2,7}) <= 1
 0 <= z({3,6,2}) <= 1
 0 <= z({6,3,2}) <= 1
 0 <= z({3,6,3}) <= 1
 0 <= z({6,3,3}) <= 1
 0 <= z({4,8,1}) <= 1
 0 <= z({8,4,1}) <= 1
 0 <= z({5,9,4}) <= 1
 0 <= z({9,5,4}) <= 1
 0 <= z({5,9,5}) <= 1
 0 <= z({9,5,5}) <= 1
Binaries
 y({1,4})  y({1,5})  y({2,7})  y({3,2})  y({3,3})  y({4,1})  y({5,4}) 
 y({5,5})  y({6,2})  y({6,3})  y({7,6})  y({8,1})  y({9,4})  y({9,5}) 
 y({10,7})  x({1,2})  x({4,5})  x({6,7})  x({8,9})  x({8,10})  x({9,10}) 
 z({1,5,4})  z({5,1,4})  z({1,5,5})  z({5,1,5})  z({1,9,4})  z({9,1,4}) 
 z({1,9,5})  z({9,1,5})  z({2,10,7})  z({10,2,7})  z({3,6,2})  z({6,3,2}) 
 z({3,6,3})  z({6,3,3})  z({4,8,1})  z({8,4,1})  z({5,9,4})  z({9,5,4}) 
 z({5,9,5})  z({9,5,5}) 
End
